
  12   12
  10   10   10   10   10   10   10   10   10   10   10   10

   0   0   0   0   0   0   0   0   0   0   0   0   0   6 2 3 4 5 6 11 
   7   0   0   0   0   0   0   0   1   1   1   0   0   4 10 9 8 7 
   3   1   0   0   0   1   0   0   0   0   0   2   1   3 9 8 7 
   1   0   0   0   1   0   5   0   5   4   0   3   0   3 9 8 7 
   7   0   0   0   9   0   0   1   6   7   0   0   8   2 8 7 
   1   0   0   0   5   0   0   0   9   0   5   0   4   1 7 
   9   0   1   0   0   5   0   0   0   0   7   0   0   1 12
   2   0   0   0   0   9   0   0   0   0   0   0   0   1 12
   5   9   9   0   0   0   0   0   0   0   7  10   0   1 12
   9   0   0   0   0   0   0   0   0   8   0   0   5   1 12
   5   0   0   5   0   0   0   9   4   0   0   0   7   1 12
   0   0   0   0   0   0   0   0   0   0   0   0   0   0 
